&control
  calculation='scf'
  prefix='ZnSe.ZB.scf'
  pseudo_dir='./'
/
&system
  ibrav=0
  nat=2
  ntyp=2
  ecutwfc=40
  ecutrho=200
  occupations='fixed'
  nbnd=36
/
&electrons
  conv_thr=1.d-8
/
&ions
  ion_dynamics='bfgs'
/        
&cell
  cell_dynamics='bfgs'
/
K_POINTS (automatic)
  8 8 8 1 1 1
ATOMIC_SPECIES
  Zn 0.0 Zn.GGA-PBE-paw.UPF
  Se 0.0 Se.GGA-PBE-paw.UPF
ATOMIC_POSITIONS (crystal)
  Zn 0.0 0.0 0.0
  Se 0.25 0.25 0.25
