&control
  calculation='vc-relax'
  prefix='relax'
  pseudo_dir='./'
/
&system
  ibrav=0
  nat=8
  ntyp=1
  ecutwfc=40
  ecutrho=200
  smearing='fermi-dirac'
  degauss=0.002
  occupations='smearing'
/
&electrons
  conv_thr=1.d-8
/
&ions
  ion_dynamics='bfgs'
/        
&cell
  cell_dynamics='bfgs'
/
ATOMIC_SPECIES
  P 0.0 P.GGA-PBE-paw.UPF
K_POINTS (automatic)
  8 2 6 0 0 0
ATOMIC_POSITIONS crystal
P 0.000000 0.906430 0.587190
P 0.000000 0.593570 0.087190
P 0.000000 0.406430 0.912810
P 0.000000 0.093570 0.412810
P 0.500000 0.406430 0.587190
P 0.500000 0.093570 0.087190
P 0.500000 0.906430 0.912810
P 0.500000 0.593570 0.412810
CELL_PARAMETERS angstrom
3.304659 0.000000 0.000000
0.000000 11.316935 0.000000
0.000000 0.000000 4.573268
