&control
  calculation='vc-relax'
  prefix='relax'
  pseudo_dir='./'
/
&system
  ibrav=0
  nat=8
  ntyp=1
  ecutwfc=40
  ecutrho=200
  smearing='fermi-dirac'
  degauss=0.002
  occupations='smearing'
/
&electrons
  conv_thr=1.d-8
/
&ions
  ion_dynamics='bfgs'
/        
&cell
  cell_dynamics='bfgs'
/
ATOMIC_SPECIES
  P 0.0 P.GGA-PBE-paw.UPF
K_POINTS (automatic)
  8 8 2 0 0 0
CELL_PARAMETERS angstrom
    1.6523295000    -2.2866340000     0.0000000000
    1.6523295000     2.2866340000     0.0000000000
    0.0000000000     0.0000000000    11.3169300000
ATOMIC_POSITIONS angstrom
P        1.6523295000     2.7145546868     4.6717418733
P        1.6523295000     4.1453473132    10.3302068733
P        1.6523295000     0.4279206868     0.9867231267
P        1.6523295000     1.8587133132     6.6451881267
