&control
  calculation='vc-relax'
  prefix='relax'
  pseudo_dir='./'
/
&system
  ibrav=9
  celldm(1)=6.24
  celldm(2)=21.36
  celldm(3)=8.64
  nat=8
  ntyp=1
  ecutwfc=40
  ecutrho=200
  smearing='fermi-dirac'
  degauss=0.002
  occupations='smearing'
/
&electrons
  conv_thr=1.d-8
/
&ions
  ion_dynamics='bfgs'
/        
&cell
  cell_dynamics='bfgs'
/
ATOMIC_SPECIES
  P 0.0 P.GGA-PBE-paw.UPF
ATOMIC_POSITIONS (alat)
P 0.000000 0.906430 0.587190
P 0.000000 0.593570 0.087190
P 0.000000 0.406430 0.912810
P 0.000000 0.093570 0.412810
P 0.500000 0.406430 0.587190
P 0.500000 0.093570 0.087190
P 0.500000 0.906430 0.912810
P 0.500000 0.593570 0.412810
K_POINTS (automatic)
  8 2 6 0 0 0
