&control
  calculation='scf'
  prefix='SrO.RS.scf'
  pseudo_dir='./'
/
&system
  ibrav=0
  nat=2
  ntyp=2
  ecutwfc=40
  ecutrho=200
  occupations='fixed'
  nbnd=32
/
&electrons
  conv_thr=1.d-8
/
K_POINTS (automatic)
  8 8 8 1 1 1
ATOMIC_SPECIES
  O 0.0 O.GGA-PBE-paw.UPF
  Sr 0.0 Sr.GGA-PBE-paw.UPF
ATOMIC_POSITIONS (crystal)
  O 0.0 0.0 0.0
  Sr 0.5 0.5 0.5
