&control
  calculation='scf'
  prefix='HgO.ortho.scf'
  pseudo_dir='./'
/
&system
  ibrav=0
  nat=8
  ntyp=2
  ecutwfc=40
  ecutrho=200
  occupations='fixed'
  nbnd=72
/
&electrons
  conv_thr=1.d-8
/
ATOMIC_SPECIES
  Hg 0.0 Hg.GGA-PBE-paw.UPF
  O 0.0 O.GGA-PBE-paw.UPF
K_POINTS (automatic)
  7 9 14 0 0 0
ATOMIC_POSITIONS crystal
0.115261 0.250000 0.242922 Hg
0.884739 0.750000 0.757078 Hg
0.384739 0.750000 0.742922 Hg
0.615261 0.250000 0.257078 Hg
0.137767 0.750000 0.069045 O
0.862233 0.250000 0.930955 O
0.362233 0.250000 0.569045 O
0.637767 0.750000 0.430955 O
CELL_PARAMETERS angstrom
6.612900 0.000000 0.000000
0.000000 5.520800 0.000000
0.000000 0.000000 3.521900
