&control
  calculation='scf'
  prefix='CrO.scf'
  pseudo_dir='./'
/
&system
  ibrav=0
  nat=2
  ntyp=2
  ecutwfc=40
  ecutrho=200
  smearing='fermi-dirac'
  degauss=0.002
  occupations='smearing'
  nspin=2
  starting_magnetization(1)=0.00
  starting_magnetization(2)=3.00
/
&electrons
  conv_thr=1.d-8
/
ATOMIC_SPECIES
  O 0.0 O.GGA-PBE-paw.UPF
  Cr 0.0 Cr.GGA-PBE-paw.UPF
K_POINTS (automatic)
  12 12 12 0 0 0
ATOMIC_POSITIONS (crystal)
  O 0.0 0.0 0.0
  Cr 0.5 0.5 0.5
