&control
  calculation='scf'
  prefix='LiNbO3.rhomb.scf'
  pseudo_dir='./'
/
&system
  ibrav=0
  nat=10
  ntyp=3
  ecutwfc=40
  ecutrho=200
  occupations='fixed'
  nbnd=72
  use_all_frac=.TRUE.
/
&electrons
  conv_thr=1.d-8
/
ATOMIC_SPECIES
  Li 0.0 Li.GGA-PBE-paw.UPF
  Nb 0.0 Nb.GGA-PBE-paw.UPF
  O 0.0 O.GGA-PBE-paw.UPF
K_POINTS (automatic)
  10 10 10 1 1 1
CELL_PARAMETERS angstrom
-2.642423 -4.576812 0.000000
-5.284847 0.000000 0.000000
-2.642423 -1.525604 -4.845961
ATOMIC_POSITIONS crystal
Li 0.362190 0.362190 0.913430
Li 0.637810 0.637810 0.086570
Nb 0.144391 0.144391 0.566827
Nb 0.855609 0.855609 0.433173
O 0.783917 0.045837 0.732395
O 0.216083 0.954163 0.267605
O 0.045837 0.437851 0.732395
O 0.954163 0.562149 0.267605
O 0.437851 0.783917 0.732395
O 0.562149 0.216083 0.267605
