&control
  calculation='vc-relax'
  prefix='relax'
  pseudo_dir='./'
  nstep=1
/
&system
  ibrav=0
  nat=10
  ntyp=3
  ecutwfc=40
  ecutrho=200
  smearing='fermi-dirac'
  degauss=0.002
  occupations='smearing'
/
&electrons
  conv_thr=1.d-8
/
&ions
  ion_dynamics='bfgs'
/        
&cell
  cell_dynamics='none'
/
ATOMIC_SPECIES
  Li 0.0 Li.GGA-PBE-paw.UPF
  Nb 0.0 Nb.GGA-PBE-paw.UPF
  O 0.0 O.GGA-PBE-paw.UPF
K_POINTS (automatic)
  8 8 8 0 0 0
CELL_PARAMETERS angstrom
-2.574145 -4.458550 0.000000
-5.148290 0.000000 0.000000
-2.574145 -1.486183 -4.621033
ATOMIC_POSITIONS crystal
Li 0.225000 0.225000 0.325000
Li 0.725000 0.725000 0.825000
Nb 0.000000 0.000000 0.000000
Nb 0.500000 0.500000 0.500000
O 0.694000 0.360500 0.841900
O 0.360500 0.103600 0.841900
O 0.103600 0.694000 0.841900
O 0.603600 0.860500 0.341900
O 0.860500 0.194000 0.341900
O 0.194000 0.603600 0.341900
