&control
  calculation='vc-relax'
  prefix='relax'
  pseudo_dir='./'
/
&system
  ibrav=0
  nat=5
  ntyp=3
  ecutwfc=40
  ecutrho=200
  smearing='fermi-dirac'
  degauss=0.002
  occupations='smearing'
/
&electrons
  conv_thr=1.d-8
/
&ions
  ion_dynamics='bfgs'
/        
&cell
  cell_dynamics='bfgs'
/
ATOMIC_SPECIES
  K 0.0 K.GGA-PBE-paw.UPF
  Mg 0.0 Mg.GGA-PBE-paw.UPF
  Cl 0.0 Cl.GGA-PBE-paw.UPF
K_POINTS (automatic)
  12 12 12 0 0 0
ATOMIC_POSITIONS (crystal)
K 0.0 0.0 0.0
Mg 0.5 0.5 0.5
Cl 0.0 0.5 0.5
Cl 0.5 0.5 0.0
Cl 0.5 0.0 0.5
CELL_PARAMETERS angstrom
    5.0451300000     0.0000000000     0.0000000000
    0.0000000000     5.0451300000     0.0000000000
    0.0000000000     0.0000000000     5.0451300000

