&control
  calculation='relax'
  prefix='ZnO.ZB.relax'
  pseudo_dir='./'
/
&system
  ibrav=0
  nat=2
  ntyp=2
  ecutwfc=40
  ecutrho=200
  smearing='fermi-dirac'
  degauss=0.002
  occupations='smearing'
/
&electrons
  conv_thr=1.d-8
/
&ions
  ion_dynamics='bfgs'
/
&cell
  cell_dynamics='bfgs'
/
K_POINTS (automatic)
  8 8 8 0 0 0
ATOMIC_SPECIES
  Zn 0.0 Zn.GGA-PBE-paw.UPF
  O 0.0 O.GGA-PBE-paw.UPF
ATOMIC_POSITIONS crystal 
Zn      -0.000000000  -0.000000000   0.000000000
O        0.250000000   0.250000000   0.250000000
CELL_PARAMETERS bohr
-4.303161890882344 0.0 4.303161890882344 
-0.0 4.303161890882344 4.303161890882344 
-4.303161890882344 4.303161890882344 0.0 
