&control
  calculation='vc-relax'
  prefix='relax'
  pseudo_dir='./'
/
&system
  ibrav=7
  celldm(1)=7.754
  celldm(3)=0.865
  nat=1
  ntyp=1
  ecutwfc=40
  ecutrho=200
  smearing='fermi-dirac'
  degauss=0.002
  occupations='smearing'
/
&electrons
  conv_thr=1.d-8
/
&ions
  ion_dynamics='bfgs'
/        
&cell
  cell_dynamics='bfgs'
/
ATOMIC_SPECIES
  Hg 0.0 Hg.GGA-PBE-paw.UPF
K_POINTS (automatic)
  8 8 8 0 0 0
ATOMIC_POSITIONS crystal
Hg 0.000 0.000 0.000
