&control
  calculation='vc-relax'
  prefix='relax'
  pseudo_dir='./'
/
&system
  ibrav=2
  celldm=8.768
  nat=3
  ntyp=2
  ecutwfc=40
  ecutrho=200
  smearing='fermi-dirac'
  degauss=0.002
  occupations='smearing'
/
&electrons
  conv_thr=1.d-8
/
&ions
  ion_dynamics='bfgs'
/        
&cell
  cell_dynamics='bfgs'
/
ATOMIC_SPECIES
  Mg 0.0 Mg.GGA-PBE-paw.UPF
  C 0.0 C.GGA-PBE-paw.UPF
K_POINTS (automatic)
  12 12 12 0 0 0
ATOMIC_POSITIONS (crystal)
Mg 0.25 0.25 0.25
Mg 0.75 0.75 0.75
C 0.0 0.0 0.0
