&control
  calculation='vc-relax'
  prefix='relax'
  pseudo_dir='./'
/
&system
  ibrav=2
  celldm=9.22
  nat=3
  ntyp=2
  ecutwfc=40
  ecutrho=200
  smearing='fermi-dirac'
  degauss=0.002
  occupations='smearing'
/
&electrons
  conv_thr=1.d-8
/
&ions
  ion_dynamics='bfgs'
/        
&cell
  cell_dynamics='bfgs'
/
ATOMIC_SPECIES
  O 0.0 O.GGA-PBE-paw.UPF
  Os 0.0 Os.GGA-PBE-paw.UPF
K_POINTS (automatic)
  12 12 12 0 0 0
ATOMIC_POSITIONS (crystal)
O 0.25 0.25 0.25
O 0.75 0.75 0.75
Os 0.0 0.0 0.0
