&control
  calculation='vc-relax'
  prefix='relax'
  pseudo_dir='./'
/
&system
  ibrav=2
  celldm=11.15
  nat=3
  ntyp=2
  ecutwfc=40
  ecutrho=200
  smearing='fermi-dirac'
  degauss=0.002
  occupations='smearing'
/
&electrons
  conv_thr=1.d-8
/
&ions
  ion_dynamics='bfgs'
/        
&cell
  cell_dynamics='bfgs'
/
ATOMIC_SPECIES
  F 0.0 F.GGA-PBE-paw.UPF
  Pb 0.0 Pb.GGA-PBE-paw.UPF
K_POINTS (automatic)
  12 12 12 1 1 1
ATOMIC_POSITIONS (crystal)
F 0.25 0.25 0.25
F 0.75 0.75 0.75
Pb 0.0 0.0 0.0
