&control
  calculation='scf'
  prefix='scf'
  pseudo_dir='./'
/
&system
  ibrav=0
  nat=2
  ntyp=2
  ecutwfc=40
  ecutrho=200
  occupations='fixed'
  nbnd=72
/
&electrons
  conv_thr=1.d-8
/
&ions
  ion_dynamics='bfgs'
/        
&cell
  cell_dynamics='bfgs'
/
K_POINTS (automatic)
  6 8 7 0 0 0
ATOMIC_SPECIES
  La 0.0 La.GGA-PBE-paw.UPF
  N 0.0 N.GGA-PBE-paw.UPF
