&control
  calculation='vc-relax'
  prefix='relax'
  pseudo_dir='./'
/
&system
  ibrav=0
  nat=4
  ntyp=2
  ecutwfc=40
  ecutrho=200
  smearing='fermi-dirac'
  degauss=0.002
  occupations='smearing'
  use_all_frac=.TRUE.
/
&electrons
  conv_thr=1.d-8
/
&ions
  ion_dynamics='bfgs'
/        
&cell
  cell_dynamics='bfgs'
/
ATOMIC_SPECIES
  La 0.0 La.GGA-PBE-paw.UPF
  N 0.0 N.GGA-PBE-paw.UPF
K_POINTS (automatic)
   8 8 6 1 1 1
CELL_PARAMETERS angstrom
4.132865 0.000000 0.000000
-2.066432 3.579166 0.000000
0.000000 0.000000 5.960067
ATOMIC_POSITIONS crystal
La 0.333333 0.666667 0.998741
La 0.666667 0.333333 0.498741
N 0.333333 0.666667 0.411259
N 0.666667 0.333333 0.911259
