&control
  calculation='vc-relax'
  prefix='CO2.SC.relax'
  pseudo_dir='./'
/
&system
  ibrav=1
  celldm(1)=11.47
  nat=12
  ntyp=2
  ecutwfc=40
  ecutrho=200
  smearing='fermi-dirac'
  degauss=0.002
  occupations='smearing'
/
&electrons
  conv_thr=1.d-8
/
&ions
  ion_dynamics='bfgs'
/        
&cell
  cell_dynamics='bfgs'
/
K_POINTS (automatic)
 8 8 8 0 0 0
ATOMIC_SPECIES
  O 0.0 O.GGA-PBE-paw.UPF
  C 0.0 C.GGA-PBE-paw.UPF
ATOMIC_POSITIONS (crystal)
C 0.000000 0.000000 0.000000
C 0.500000 0.000000 0.500000
C 0.500000 0.500000 0.000000
C 0.000000 0.500000 0.500000
O 0.116934 0.116934 0.116934
O 0.883066 0.883066 0.883066
O 0.383066 0.883066 0.616934
O 0.616934 0.116934 0.383066
O 0.616934 0.383066 0.883066
O 0.383066 0.616934 0.116934
O 0.883066 0.616934 0.383066
O 0.116934 0.383066 0.616934
