&control
  calculation='vc-relax'
  prefix='MgO.RS.relax'
  pseudo_dir='./'
/
&system
  ibrav=2
  celldm(1)=8.5
  nat=2
  ntyp=2
  ecutwfc=40
  ecutrho=200
  smearing='fermi-dirac'
  degauss=0.002
  occupations='smearing'
/
&electrons
  conv_thr=1.d-8
/
&ions
  ion_dynamics='bfgs'
/        
&cell
  cell_dynamics='bfgs'
/
K_POINTS (automatic)
 8 8 8 0 0 0
ATOMIC_SPECIES
  O 0.0 O.GGA-PBE-paw.UPF
  Mg 0.0 Mg.GGA-PBE-paw.UPF
ATOMIC_POSITIONS (crystal)
  O 0.0 0.0 0.0
  Mg 0.5 0.5 0.5
