&control
  calculation='vc-relax'
  prefix='VO.relax'
  pseudo_dir='./'
/
&system
  ibrav=2
  celldm(1)=8.4
  nat=2
  ntyp=2
  ecutwfc=40
  ecutrho=200
  smearing='fermi-dirac'
  degauss=0.002
  occupations='smearing'
  nspin=2
  starting_magnetization(1)=0.00
  starting_magnetization(2)=1.60
/
&electrons
  conv_thr=1.d-8
/
&ions
  ion_dynamics='bfgs'
/        
&cell
  cell_dynamics='bfgs'
/
ATOMIC_SPECIES
  O 0.0 O.GGA-PBE-paw.UPF
  V 0.0 V.GGA-PBE-paw.UPF
ATOMIC_POSITIONS (crystal)
  O 0.0 0.0 0.0
  V 0.5 0.5 0.5
K_POINTS (automatic)
 8 8 8 0 0 0
