&control
  calculation='vc-relax'
  prefix='relax'
  pseudo_dir='./'
/
&system
  ibrav=2
  celldm(1)=10.7
  nat=2
  ntyp=2
  ecutwfc=40
  ecutrho=200
  smearing='fermi-dirac'
  degauss=0.002
  occupations='smearing'
/
&electrons
  conv_thr=1.d-8
/
&ions
  ion_dynamics='bfgs'
/        
&cell
  cell_dynamics='bfgs'
/
K_POINTS (automatic)
  7 7 7 0 0 0
ATOMIC_SPECIES
  S 0.0 S.GGA-PBE-paw.UPF
  Ca 0.0 Ca.GGA-PBE-paw.UPF
ATOMIC_POSITIONS (crystal)
  S 0.0 0.0 0.0
  Ca 0.5 0.5 0.5
