&control
  calculation='scf'
  prefix='ZrO2.FCC.scf'
  pseudo_dir='./'
/
&system
  ibrav=0
  nat=3
  ntyp=2
  ecutwfc=40
  ecutrho=200
  occupations='fixed'
  nbnd=32
/
&electrons
  conv_thr=1.d-8
/
ATOMIC_SPECIES
  Zr 0.0 Zr.GGA-PBE-paw.UPF
  O 0.0 O.GGA-PBE-paw.UPF
ATOMIC_POSITIONS (alat)
  Zr 0.0 0.0 0.0
  O 0.25 0.25 0.25
  O 0.75 0.75 0.75
K_POINTS (automatic)
  8 8 8 0 0 0
