&control
  calculation='scf'
  prefix='AlSb.ZB.scf'
  pseudo_dir='./'
/
&system
  ibrav=0
  nat=2
  ntyp=2
  ecutwfc=40
  ecutrho=200
  occupations='fixed'
  nbnd=24
/
&electrons
  conv_thr=1.d-8
/
K_POINTS (automatic)
  16 16 16 1 1 1
ATOMIC_SPECIES
  Al 0.0 Al.GGA-PBE-paw.UPF
  Sb 0.0 Sb.GGA-PBE-paw.UPF
ATOMIC_POSITIONS (crystal)
  Al 0.0 0.0 0.0
  Sb 0.25 0.25 0.25
