&control
  calculation='vc-relax'
  prefix='relax'
  pseudo_dir='./'
/
&system
  ibrav=1
  celldm(1)=5.2
  nat=2
  ntyp=2
  ecutwfc=40
  ecutrho=200
  smearing='fermi-dirac'
  degauss=0.002
  occupations='smearing'
/
&electrons
  conv_thr=1.d-8
/
&ions
  ion_dynamics='bfgs'
/        
&cell
  cell_dynamics='bfgs'
/
K_POINTS (automatic)
  8 8 8 0 0 0
ATOMIC_SPECIES
  Be 0.0 Be.GGA-PBE-paw.UPF
  Rh 0.0 Rh.GGA-PBE-paw.UPF
ATOMIC_POSITIONS (crystal)
  Be 0.0 0.0 0.0
  Rh 0.5 0.5 0.5
