&input
  fildyn='matdyn.dyn',
  prefix='dynmat'
/

