&control
  calculation='vc-relax'
  prefix='relax'
  pseudo_dir='./'
/
&system
  ibrav=0
  nat=3
  ntyp=2
  ecutwfc=40
  ecutrho=200
  smearing='fermi-dirac'
  degauss=0.002
  occupations='smearing'
  use_all_frac=.TRUE.
/
&electrons
  conv_thr=1.d-8
/
&ions
  ion_dynamics='bfgs'
/        
&cell
  cell_dynamics='none'
/
ATOMIC_SPECIES
  Pt 0.0 Pt.GGA-PBE-paw.UPF
  S 0.0 S.GGA-PBE-paw.UPF
K_POINTS (automatic)
  16 16 10 1 1 1
CELL_PARAMETERS angstrom
3.580074 0.000000 0.000000
-1.790037 3.100435 0.000000
0.000000 0.000000 5.0388000
ATOMIC_POSITIONS crystal
Pt 0.000000 0.000000 0.00000
S 0.333333 0.666667 0.227000
S 0.666667 0.333333 0.773000
