&control
  calculation='scf'
  prefix='CsCaF3.per.scf'
  pseudo_dir='./'
/
&system
  ibrav=0
  nat=5
  ntyp=3
  ecutwfc=40
  ecutrho=200
  occupations='fixed'
  nbnd=48
/
&electrons
  conv_thr=1.d-8
/
&ions
  ion_dynamics='bfgs'
/        
&cell
  cell_dynamics='bfgs'
/
ATOMIC_SPECIES
  Cs 0.0 Cs.GGA-PBE-paw.UPF
  Ca 0.0 Ca.GGA-PBE-paw.UPF
  F 0.0 F.GGA-PBE-paw.UPF
K_POINTS (automatic)
  12 12 12 0 0 0
ATOMIC_POSITIONS (crystal)
Cs 0.0 0.0 0.0
Ca 0.5 0.5 0.5
F 0.0 0.5 0.5
F 0.5 0.5 0.0
F 0.5 0.0 0.5
