&control
  calculation='scf'
  prefix='HfO2.FCC.scf'
  pseudo_dir='./'
/
&system
  ibrav=0
  nat=3
  ntyp=2
  ecutwfc=40
  ecutrho=200
  occupations='fixed'
  nbnd=32
/
&electrons
  conv_thr=1.d-8
/
ATOMIC_SPECIES
  O 0.0 O.GGA-PBE-paw.UPF
  Hf 0.0 Hf.GGA-PBE-paw.UPF
K_POINTS (automatic)
  16 16 16 0 0 0
ATOMIC_POSITIONS (crystal)
O 0.25 0.25 0.25
O 0.75 0.75 0.75
Hf 0.0 0.0 0.0
