&control
  calculation='vc-relax'
  prefix='relax'
  pseudo_dir='./'
/
&system
  ibrav=0
  nat=4
  ntyp=1
  ecutwfc=40
  ecutrho=200
  smearing='fermi-dirac'
  degauss=0.002
  occupations='smearing'
/
&electrons
  conv_thr=1.d-8
/
&ions
  ion_dynamics='bfgs'
/        
&cell
  cell_dynamics='bfgs'
/
ATOMIC_SPECIES
  P 0.0 P.GGA-PBE-paw.UPF
K_POINTS (automatic)
  8 8 8 0 0 0
ATOMIC_POSITIONS angstrom
P        0.0000000000     1.0589257015     2.6853772369
P        0.0000000000     4.5995422985     0.3987432369
P        1.6523295000     1.0589257015     4.1745247631
P        1.6523295000     4.5995422985     1.8878907631
CELL_PARAMETERS angstrom
    1.6523295000    -5.6584680000     0.0000000000
    1.6523295000     5.6584680000     0.0000000000
    0.0000000000     0.0000000000     4.5732680000
