&control
  calculation='vc-relax'
  prefix='relax'
  pseudo_dir='./'
/
&system
  ibrav=0
  nat=5
  ntyp=3
  ecutwfc=40
  ecutrho=200
  smearing='fermi-dirac'
  degauss=0.002
  occupations='smearing'
/
&electrons
  conv_thr=1.d-8
/
&ions
  ion_dynamics='bfgs'
/        
&cell
  cell_dynamics='bfgs'
/
ATOMIC_SPECIES
  Cs 0.0 Cs.GGA-PBE-paw.UPF
  Pb 0.0 Pb.GGA-PBE-paw.UPF
  Br 0.0 Br.GGA-PBE-paw.UPF
K_POINTS (automatic)
  8 8 8 0 0 0
ATOMIC_POSITIONS (crystal)
Cs 0.0 0.0 0.0
Pb 0.5 0.5 0.5
Br 0.0 0.5 0.5
Br 0.5 0.5 0.0
Br 0.5 0.0 0.5
CELL_PARAMETERS angstrom
    5.9451300000     0.0000000000     0.0000000000
    0.0000000000     5.9451300000     0.0000000000
    0.0000000000     0.0000000000     5.9451300000

