&input
  fildyn='matdyn.dyn',
  prefix='dynmat',
  asr='simple'
/
