&control
  calculation='scf'
  prefix='Si.diamond.scf'
  pseudo_dir='./'
/
&system
  ibrav=0
  nat=2
  ntyp=1
  ecutwfc=40
  ecutrho=200
  occupations='fixed'
  nbnd=16
/
&electrons
  conv_thr=1.d-8
/
K_POINTS (automatic)
  8 8 8 1 1 1
ATOMIC_SPECIES
  Si 0.0 Si.GGA-PBE-paw.UPF
ATOMIC_POSITIONS (crystal)
Si 0.0 0.0 0.0
Si 0.25 0.25 0.25
