&control
  calculation='scf'
  prefix='SiC.ZB.scf'
  pseudo_dir='./'
/
&system
  ibrav=0
  nat=2
  ntyp=2
  ecutwfc=40
  ecutrho=200
  occupations='fixed'
  nbnd=24
/
&electrons
  conv_thr=1.d-8
/
&ions
  ion_dynamics='bfgs'
/        
&cell
  cell_dynamics='bfgs'
/
K_POINTS (automatic)
  8 8 8 1 1 1
ATOMIC_SPECIES
  C 0.0 C.GGA-PBE-paw.UPF
  Si 0.0 Si.GGA-PBE-paw.UPF
ATOMIC_POSITIONS (crystal)
  C 0.0 0.0 0.0
  Si 0.25 0.25 0.25
