&control
  calculation='scf'
  prefix='PbF2.FCC.scf'
  pseudo_dir='./'
/
&system
  ibrav=0
  nat=3
  ntyp=2
  ecutwfc=40
  ecutrho=200
  occupations='fixed'
  nbnd=32
/
&electrons
  conv_thr=1.d-8
/
ATOMIC_SPECIES
  F 0.0 F.GGA-PBE-paw.UPF
  Pb 0.0 Pb.GGA-PBE-paw.UPF
K_POINTS (automatic)
  12 12 12 1 1 1
ATOMIC_POSITIONS (crystal)
F 0.25 0.25 0.25
F 0.75 0.75 0.75
Pb 0.0 0.0 0.0
