&control
  calculation='scf'
  prefix='PbTiO3.per.scf'
  pseudo_dir='./'
/
&system
  ibrav=0
  nat=5
  ntyp=3
  ecutwfc=40
  ecutrho=200
  smearing='fixed'
  nbnd=36
/
&electrons
  conv_thr=1.d-8
/
&ions
  ion_dynamics='bfgs'
/        
&cell
  cell_dynamics='bfgs'
/
ATOMIC_SPECIES
  Pb 0.0 Pb.GGA-PBE-paw.UPF
  Ti 0.0 Ti.GGA-PBE-paw.UPF
  O 0.0 O.GGA-PBE-paw.UPF
K_POINTS (automatic)
  16 16 16 0 0 0
ATOMIC_POSITIONS (crystal)
Pb 0.0 0.0 0.0
Ti 0.5 0.5 0.5
O 0.0 0.5 0.5
O 0.5 0.5 0.0
O 0.5 0.0 0.5
CELL_PARAMETERS angstrom
    3.9451300000     0.0000000000     0.0000000000
    0.0000000000     3.9451300000     0.0000000000
    0.0000000000     0.0000000000     3.9451300000

