&control
  calculation='scf'
  prefix='NiO.RS.scf'
  pseudo_dir='./'
/
&system
  ibrav=0
  nat=2
  ntyp=2
  ecutwfc=40
  ecutrho=200
  smearing='fermi-dirac'
  degauss=0.002
  occupations='smearing'
  nspin=2
  starting_magnetization(1)=0.00
  starting_magnetization(2)=1.82
/
&electrons
  conv_thr=1.d-8
  mixing_beta=0.4
/
K_POINTS (automatic)
  8 8 8 0 0 0
ATOMIC_SPECIES
  O 0.0 O.GGA-PBE-paw.UPF
  Ni 0.0 Ni.GGA-PBE-paw.UPF
ATOMIC_POSITIONS (crystal)
  O 0.0 0.0 0.0
  Ni 0.5 0.5 0.5
