&control
  calculation='scf'
  prefix='CdTe.ZB.scf'
  pseudo_dir='./'
/
&system
  ibrav=0
  nat=2
  ntyp=2
  ecutwfc=40
  ecutrho=200
  occupations='fixed'
  nbnd=36
/
&electrons
  conv_thr=1.d-8
/
K_POINTS (automatic)
  8 8 8 1 1 1
ATOMIC_SPECIES
  Te 0.0 Te.GGA-PBE-paw.UPF
  Cd 0.0 Cd.GGA-PBE-paw.UPF
ATOMIC_POSITIONS (crystal)
  Te 0.0 0.0 0.0
  Cd 0.25 0.25 0.25
