&control
  calculation='scf'
  prefix='AlN.RS.scf'
  pseudo_dir='./'
/
&system
  ibrav=0
  nat=2
  ntyp=2
  ecutwfc=40
  ecutrho=200
  occupations='fixed'
  nbnd=24
/
&electrons
  conv_thr=1.d-8
/
K_POINTS (automatic)
  12 12 12 0 0 0
ATOMIC_SPECIES
  N 0.0 N.GGA-PBE-paw.UPF
  Al 0.0 Al.GGA-PBE-paw.UPF
ATOMIC_POSITIONS (crystal)
  N 0.0 0.0 0.0
  Al 0.5 0.5 0.5
