&control
  calculation='vc-relax'
  prefix='relax'
  pseudo_dir='./'
/
&system
  ibrav=1
  celldm=7.175
  nat=5
  ntyp=3
  ecutwfc=40
  ecutrho=200
  smearing='fermi-dirac'
  degauss=0.002
  occupations='smearing'
/
&electrons
  conv_thr=1.d-8
/
&ions
  ion_dynamics='bfgs'
/        
&cell
  cell_dynamics='bfgs'
/
ATOMIC_SPECIES
  Bi 0.0 Bi.GGA-PBE-paw.UPF
  Al 0.0 Al.GGA-PBE-paw.UPF
  O 0.0 O.GGA-PBE-paw.UPF
K_POINTS (automatic)
  8 8 8 0 0 0
ATOMIC_POSITIONS (crystal)
Bi 0.0 0.0 0.0
Al 0.5 0.5 0.5
O 0.0 0.5 0.5
O 0.5 0.5 0.0
O 0.5 0.0 0.5
