&control
  calculation='scf'
  prefix='WS2.hex.scf'
  pseudo_dir='./'
/
&system
  ibrav=0
  nat=6
  ntyp=2
  ecutwfc=40
  ecutrho=200
  occupations='fixed'
  nbnd=48
  use_all_frac=.TRUE.
/
&electrons
  conv_thr=1.d-8
/
ATOMIC_SPECIES
  W 0.0 W.GGA-PBE-paw.UPF
  S 0.0 S.GGA-PBE-paw.UPF
K_POINTS (automatic)
  12 12 4 1 1 1
CELL_PARAMETERS angstrom
3.190731 0.000000 0.000000
-1.595365 2.763254 0.000000
0.000000 0.000000 14.202402
ATOMIC_POSITIONS crystal
W 0.333333 0.666667 0.750000
W 0.666667 0.333333 0.250000
S 0.333333 0.666667 0.139241
S 0.666667 0.333333 0.860759
S 0.666667 0.333333 0.639241
S 0.333333 0.666667 0.360759
