&control
  calculation='relax'
  prefix='relax'
  pseudo_dir='./'
/
&system
  ibrav=1
  celldm=11.6977
  nat=8
  ntyp=1
  ecutwfc=40
  ecutrho=200
  smearing='fermi-dirac'
  degauss=0.002
  occupations='smearing'
/
&electrons
  conv_thr=1.d-8
/
&ions
  ion_dynamics='bfgs'
/        
&cell
  cell_dynamics='bfgs'
/
ATOMIC_SPECIES
  N 0.0 N.GGA-PBE-paw.UPF
ATOMIC_POSITIONS (crystal)
N 0.551890 0.551890 0.551890
N 0.948110 0.448110 0.051890
N 0.448110 0.051890 0.948110
N 0.051890 0.948110 0.448110
N 0.448110 0.448110 0.448110
N 0.051890 0.551890 0.948110
N 0.551890 0.948110 0.051890
N 0.948110 0.051890 0.551890
K_POINTS (automatic)
  8 8 8 0 0 0

