&control
  calculation='vc-relax'
  prefix='relax'
  pseudo_dir='./'
/
&system
  ibrav=0
  nat=6
  ntyp=2
  ecutwfc=40
  ecutrho=200
  smearing='fermi-dirac'
  degauss=0.002
  occupations='smearing'
/
&electrons
  conv_thr=1.d-8
/
&ions
  ion_dynamics='bfgs'
/        
&cell
  cell_dynamics='bfgs'
/
K_POINTS (automatic)
  8 8 12 0 0 0
ATOMIC_SPECIES
  Sn 0.0 Sn.GGA-PBE-paw.UPF
  O 0.0 O.GGA-PBE-paw.UPF
CELL_PARAMETERS (angstrom)
4.832336 0.000000 0.000000
0.000000 4.832336 0.000000
0.000000 0.000000 3.243221
ATOMIC_POSITIONS (crystal)
Sn 0.000000 0.000000 0.000000
Sn 0.500000 0.500000 0.500000
O 0.193448 0.806552 0.500000
O 0.806552 0.193448 0.500000
O 0.693448 0.693448 0.000000
O 0.306552 0.306552 0.000000
