&control
  calculation='scf'
  prefix='CuI.ZB.scf'
  pseudo_dir='./'
/
&system
  ibrav=2
  celldm(1)=11.48
  nat=2
  ntyp=2
  ecutwfc=40
  ecutrho=200
  occupations='fixed'
  nbnd=32
/
&electrons
  conv_thr=1.d-8
/
K_POINTS (automatic)
  12 12 12 0 0 0
ATOMIC_SPECIES
  Cu 0.0 Cu.GGA-PBE-paw.UPF
  I 0.0 I.GGA-PBE-paw.UPF
ATOMIC_POSITIONS (crystal)
  Cu 0.0 0.0 0.0
  I 0.25 0.25 0.25
