&control
  calculation='vc-relax'
  prefix='relax'
  pseudo_dir='./'
/
&system
  ibrav=0
  nat=6
  ntyp=2
  ecutwfc=40
  ecutrho=200
  smearing='fermi-dirac'
  degauss=0.002
  occupations='smearing'
  use_all_frac=.TRUE.
/
&electrons
  conv_thr=1.d-8
/
&ions
  ion_dynamics='bfgs'
/        
&cell
  cell_dynamics='bfgs'
/
ATOMIC_SPECIES
  Cu 0.0 Cu.GGA-PBE-paw.UPF
  I 0.0 I.GGA-PBE-paw.UPF
K_POINTS (automatic)
  6 6 3 1 1 1
CELL_PARAMETERS angstrom
4.1905470700000000    0.0000000000000000    0.0000000000000000
-2.0952735300000001    3.6291202100000000    0.000000000000000
0.0000000000000000    0.0000000000000000   10.2554063200000005
ATOMIC_POSITIONS crystal
Cu 0.0000000000000000  0.0000000000000000  0.2775435200000000
Cu 0.6666666700000000  0.3333333300000000  0.6108768600000001
Cu 0.3333333300000000  0.6666666700000000  0.9442101899999999
I 0.0000000000000000  0.0000000000000000  0.0274564800000000
I 0.6666666700000000  0.3333333300000000  0.3607898100000000
I 0.3333333300000000  0.6666666700000000  0.6941231400000001
