&control
  calculation='scf'
  prefix='KCl.RS.scf'
  pseudo_dir='./'
/
&system
  ibrav=0
  nat=2
  ntyp=2
  ecutwfc=40
  ecutrho=200
  occupations='fixed'
  nbnd=24
/
&electrons
  conv_thr=1.d-8
/
K_POINTS (automatic)
  8 8 8 1 1 1
ATOMIC_SPECIES
  K 0.0 K.GGA-PBE-paw.UPF
  Cl 0.0 Cl.GGA-PBE-paw.UPF
ATOMIC_POSITIONS (crystal)
  K 0.0 0.0 0.0
  Cl 0.5 0.5 0.5
