&control
  calculation='vc-relax'
  prefix='Si-relax'
  pseudo_dir='./'
/
&system
  ibrav=2
  celldm(1)=10.33
  nat=2
  ntyp=1
  ecutwfc=40
  ecutrho=200
  smearing='fermi-dirac'
  degauss=0.002
  occupations='smearing'
/
&electrons
  conv_thr=1.d-8
/
&ions
  ion_dynamics='bfgs'
/        
&cell
  cell_dynamics='bfgs'
/
ATOMIC_SPECIES
  Si 0.0 Si.GGA-PBE-paw.UPF
ATOMIC_POSITIONS (alat)
Si 0.0 0.0 0.0
Si 0.25 0.25 0.25
K_POINTS (automatic)
  12 12 12 0 0 0

