&control
  calculation='scf'
  prefix='Si-scf'
  pseudo_dir='./'
/
&system
  ibrav=2
  celldm(1)=10.3344
  nat=2
  ntyp=1
  ecutwfc=40
  ecutrho=200
  occupations='fixed'
  nbnd=16
/
&electrons
  conv_thr=1.d-8
/
ATOMIC_SPECIES
  Si 0.0 Si.GGA-PBE-paw.UPF
ATOMIC_POSITIONS (alat)
Si 0.0 0.0 0.0
Si 0.25 0.25 0.25
K_POINTS (automatic)
  12 12 12 0 0 0

