&control
  calculation='scf'
  prefix='Ge.diamond.scf'
  pseudo_dir='./'
/
&system
  ibrav=0
  nat=2
  ntyp=1
  ecutwfc=40
  ecutrho=200
  occupations='fixed'
  nbnd=16
/
&electrons
  conv_thr=1.d-8
/
K_POINTS (automatic)
  12 12 12 0 0 0
ATOMIC_SPECIES
  Ge 0.0 Ge.GGA-PBE-paw.UPF
ATOMIC_POSITIONS (crystal)
Ge 0.0 0.0 0.0
Ge 0.25 0.25 0.25
