&control
  calculation='scf'
  prefix='SiGe.hex.scf'
  pseudo_dir='./'
/
&system
  ibrav=0
  nat=4
  ntyp=2
  ecutwfc=40
  ecutrho=200
  occupations='fixed'
  nbnd=36
  use_all_frac=.TRUE.
/
&electrons
  conv_thr=1.d-8
/
ATOMIC_SPECIES
  Si 0.0 Si.GGA-PBE-paw.UPF
  Ge 0.0 Ge.GGA-PBE-paw.UPF
K_POINTS (automatic)
  8 8 6 1 1 1
CELL_PARAMETERS angstrom
3.8983956800000001 -0.0000000000000000 -0.0000000000000000
-1.9491978400000001 3.3761096899999998 0.0000000000000000
-0.0000000000000000 0.0000000000000000 6.4333458600000002
ATOMIC_POSITIONS crystal
Si 0.3333333300000000 0.6666666700000000 0.3746164100000000
Si 0.6666666700000000 0.3333333300000000 0.8746164100000000
Ge 0.3333333300000000 0.6666666700000000 0.0003825900000000
Ge 0.6666666700000000 0.3333333300000000 0.5003825900000000
