&control
  calculation='vc-relax'
  prefix='relax'
  pseudo_dir='./'
/
&system
  ibrav=0
  nat=3
  ntyp=2
  ecutwfc=40
  ecutrho=200
  smearing='fermi-dirac'
  degauss=0.002
  occupations='smearing'
  use_all_frac=.TRUE.
/
&electrons
  conv_thr=1.d-8
/
&ions
  ion_dynamics='bfgs'
/        
&cell
  cell_dynamics='bfgs'
/
ATOMIC_SPECIES
  Mo 0.0 Mo.GGA-PBE-paw.UPF
  S 0.0 S.GGA-PBE-paw.UPF
K_POINTS (automatic)
  12 12 4 1 1 1
CELL_PARAMETERS angstrom
3.190316 0.000000 0.000000
-1.595158 2.762894 0.000000
0.000000 0.000000 14.879004
ATOMIC_POSITIONS crystal
Mo 0.333333 0.666667 0.250000
Mo 0.666667 0.333333 0.750000
S 0.333333 0.666667 0.855174
S 0.666667 0.333333 0.144826
S 0.666667 0.333333 0.355174
S 0.333333 0.666667 0.644826 
