&inputph
  prefix='phonon',
  fildyn='phonon.dyn',
  tr2_ph=1.0d-12,
  search_sym=.FALSE.
/
0.0 0.0 0.0

