&control
  calculation='vc-relax'
  prefix='relax'
  pseudo_dir='./'
/
&system
  ibrav=0
  nat=2
  ntyp=1
  ecutwfc=40
  ecutrho=200
  smearing='fermi-dirac'
  degauss=0.002
  occupations='smearing'
  use_all_frac=.TRUE.
/
&electrons
  conv_thr=1.d-8
/
&ions
  ion_dynamics='bfgs'
/        
&cell
  cell_dynamics='bfgs'
/
ATOMIC_SPECIES
  Ti 0.0 Ti.GGA-PBE-paw.UPF
K_POINTS (automatic)
  8 8 8 1 1 1
CELL_PARAMETERS angstrom
2.933672 0.000000 0.000000
-1.466836 2.540634 0.000000
0.000000 0.000000 4.657009
ATOMIC_POSITIONS crystal
0.333333 0.666667 0.250000 Ti
0.666667 0.333333 0.750000 Ti
