&control
  calculation='scf'
  prefix='TiCoSb.HH.scf'
  pseudo_dir='./'
/
&system
  ibrav=0
  nat=3
  ntyp=3
  ecutwfc=40
  ecutrho=200
  occupations='fixed'
  nbnd=56
/
&electrons
  conv_thr=1.d-8
/
&ions
  ion_dynamics='bfgs'
/        
&cell
  cell_dynamics='bfgs'
/
ATOMIC_SPECIES
  Ti 0.0 Ti.GGA-PBE-paw.UPF
  Co 0.0 Co.GGA-PBE-paw.UPF
  Sb 0.0 Sb.GGA-PBE-paw.UPF
K_POINTS (automatic)
  12 12 12 0 0 0
ATOMIC_POSITIONS (crystal)
Ti 0.5 0.5 0.5
Co 0.25 0.25 0.25
Sb 0.75 0.75 0.75
