&control
  calculation='scf'
  prefix='TiO2.tetrag.scf'
  pseudo_dir='./'
/
&system
  ibrav=0
  nat=6
  ntyp=2
  ecutwfc=40
  ecutrho=200
  occupations='fixed'
  nbnd=32
/
&electrons
  conv_thr=1.d-8
/
K_POINTS (automatic)
  7 4 4 0 1 1
ATOMIC_SPECIES
  O 0.0 O.GGA-PBE-paw.UPF
  Ti 0.0 Ti.GGA-PBE-paw.UPF
