&control
  calculation='vc-relax'
  prefix='relax'
  pseudo_dir='./'
/
&system
  ibrav=1
  celldm(1)=9.012
  nat=5
  ntyp=3
  ecutwfc=40
  ecutrho=200
  smearing='fermi-dirac'
  degauss=0.002
  occupations='smearing'
/
&electrons
  conv_thr=1.d-8
/
&ions
  ion_dynamics='bfgs'
/        
&cell
  cell_dynamics='bfgs'
/
ATOMIC_SPECIES
  As 0.0 As.GGA-PBE-paw.UPF
  N 0.0 N.GGA-PBE-paw.UPF
  Ca 0.0 Ca.GGA-PBE-paw.UPF
K_POINTS (automatic)
  8 8 8 0 0 0
ATOMIC_POSITIONS (crystal)
As 0.0 0.0 0.0
N 0.5 0.5 0.5
Ca 0.0 0.5 0.5
Ca 0.5 0.5 0.0
Ca 0.5 0.0 0.5
