&control
  calculation='scf'
  prefix='GaN.ZB.scf'
  pseudo_dir='./'
/
&system
  ibrav=0
  nat=2
  ntyp=2
  ecutwfc=40
  ecutrho=200
  occupations='fixed'
  nbnd=24
/
&electrons
  conv_thr=1.d-8
/
ATOMIC_SPECIES
  N 0.0 N.GGA-PBE-paw.UPF
  Ga 0.0 Ga.GGA-PBE-paw.UPF
K_POINTS (automatic)
  24 24 24 1 1 1
ATOMIC_POSITIONS (crystal)
  N 0.0 0.0 0.0
  Ga 0.25 0.25 0.25
