&control
  calculation='vc-relax'
  prefix='relax'
  pseudo_dir='./'
/
&system
  ibrav=0
  nat=4
  ntyp=1
  ecutwfc=40
  ecutrho=200
  smearing='fermi-dirac'
  degauss=0.002
  occupations='smearing'
  use_all_frac=.TRUE.
/
&electrons
  conv_thr=1.d-8
/
&ions
  ion_dynamics='bfgs'
/        
&cell
  cell_dynamics='bfgs'
/
ATOMIC_SPECIES
  C 0.0 C.GGA-PBE-paw.UPF
K_POINTS (automatic)
  16 16 6 1 1 1
ATOMIC_POSITIONS angstrom
C        0.0000000000     0.0000000000     6.6305902500
C        0.0000000000     0.0000000000     2.2101967500
C        0.0000000000     1.4252289767     6.6305902500
C        1.2342845000     0.7126144883     2.2101967500
CELL_PARAMETERS angstrom
    2.4685690000     0.0000000000     0.0000000000
   -1.2342845000     2.1378434650     0.0000000000
    0.0000000000     0.0000000000     8.8407870000
