&control
  calculation='scf'
  prefix='scf'
  pseudo_dir='./'
/
&system
  ibrav=0
  nat=3
  ntyp=2
  ecutwfc=40
  ecutrho=200
  occupations='fixed'
  nbnd=24
/
&electrons
  conv_thr=1.d-8
/
ATOMIC_SPECIES
  Mg 0.0 Mg.GGA-PBE.paw.UPF
  C 0.0 C.GGA-PBE-paw.UPF
K_POINTS (automatic)
  8 8 8 0 0 0
ATOMIC_POSITIONS (crystal)
Mg 0.25 0.25 0.25
Mg 0.75 0.75 0.75
C 0.0 0.0 0.0
