&control
  calculation='vc-relax'
  prefix='relax'
  pseudo_dir='./'
/
&system
  ibrav=2
  celldm=11.8
  nat=3
  ntyp=3
  ecutwfc=40
  ecutrho=200
  smearing='fermi-dirac'
  degauss=0.002
  occupations='smearing'
/
&electrons
  conv_thr=1.d-8
/
&ions
  ion_dynamics='bfgs'
/        
&cell
  cell_dynamics='bfgs'
/
ATOMIC_SPECIES
  Al 0.0 Al.GGA-PBE.paw.UPF
  Be 0.0 Be.GGA-PBE.paw.UPF
  B 0.0 B.GGA-PBE-paw.UPF
K_POINTS (automatic)
  8 8 8 0 0 0
ATOMIC_POSITIONS (crystal)
Al 0.5 0.5 0.5
Be 0.25 0.25 0.25
B 0.75 0.75 0.75
