&control
  calculation='vc-relax'
  prefix='relax'
  pseudo_dir='./'
/
&system
  ibrav=0
  nat=2
  ntyp=1
  ecutwfc=40
  ecutrho=200
  smearing='fermi-dirac'
  degauss=0.002
  occupations='smearing'
  use_all_frac=.TRUE.
/
&electrons
  conv_thr=1.d-8
/
&ions
  ion_dynamics='bfgs'
/        
&cell
  cell_dynamics='bfgs'
/
ATOMIC_SPECIES
  B 0.0 B.GGA-PBE-paw.UPF
  N 0.0 N.GGA-PBE-paw.UPF
K_POINTS (automatic)
  10 10 2 1 1 1
CELL_PARAMETERS angstrom
2.515945 0.000000 0.000000
-1.257972 2.178872 0.000000
0.000000 0.000000 7.258253
ATOMIC_POSITIONS crystal
B 0.000000 0.000000 0.250000
B 0.000000 0.000000 0.750000
N 0.333333 0.666667 0.750000
N 0.666667 0.333333 0.250000
