&control
  calculation='scf'
  prefix='BN.hex.scf'
  pseudo_dir='./'
/
&system
  ibrav=0
  nat=4
  ntyp=2
  ecutwfc=40
  ecutrho=200
  occupations='fixed'
  nbnd=24
  use_all_frac=.TRUE.
/
&electrons
  conv_thr=1.d-8
/
&ions
  ion_dynamics='bfgs'
/        
&cell
  cell_dynamics='bfgs'
/
ATOMIC_SPECIES
  B 0.0 B.GGA-PBE-paw.UPF
  N 0.0 N.GGA-PBE-paw.UPF
K_POINTS (automatic)
  12 12 4 1 1 1
