&control
  calculation='vc-relax'
  prefix='relax'
  pseudo_dir='./'
/
&system
  ibrav=2
  celldm(1)=6.625
  nat=2
  ntyp=2
  ecutwfc=40
  ecutrho=200
  smearing='fermi-dirac'
  degauss=0.002
  occupations='smearing'
/
&electrons
  conv_thr=1.d-8
/
&ions
  ion_dynamics='bfgs'
/        
&cell
  cell_dynamics='bfgs'
/
K_POINTS (automatic)
  8 8 8 0 0 0
ATOMIC_SPECIES
  B 0.0 B.GGA-PBE-paw.UPF
  N 0.0 N.GGA-PBE-paw.UPF
ATOMIC_POSITIONS (crystal)
  B 0.0 0.0 0.0
  N 0.5 0.5 0.5
