&control
  calculation='scf'
  prefix='ZnSe.ZB.scf'
  pseudo_dir='./'
/
&system
  ibrav=0
  nat=2
  ntyp=2
  ecutwfc=40
  ecutrho=200
  occupations='fixed'
  nbnd=24
/
&electrons
  conv_thr=1.d-10
/
K_POINTS (automatic)
  11 11 11 0 0 0
ATOMIC_SPECIES
  Zn 0.0 Zn.GGA-PBE-paw.UPF
  Se 0.0 Se.GGA-PBE-paw.UPF
ATOMIC_POSITIONS (crystal)
Zn 0.00 0.00 0.00
Se 0.25 0.25 0.25
