&control
  calculation='scf'
  prefix='LiF.RS.scf'
  pseudo_dir='./'
/
&system
  ibrav=0
  nat=2
  ntyp=2
  ecutwfc=40
  ecutrho=200
  occupations='fixed'
  nbnd=16
/
&electrons
  conv_thr=1.d-8
/
K_POINTS (automatic)
  10 10 10 1 1 1
ATOMIC_SPECIES
  F 0.0 F.GGA-PBE-paw.UPF
  Li 0.0 Li.GGA-PBE-paw.UPF
ATOMIC_POSITIONS (crystal)
  F 0.0 0.0 0.0
  Li 0.5 0.5 0.5
