&control
  calculation='vc-relax'
  prefix='relax'
  pseudo_dir='./'
/
&system
  ibrav=2
  celldm(1)=9.761
  nat=2
  ntyp=2
  ecutwfc=40
  ecutrho=200
  smearing='fermi-dirac'
  degauss=0.002
  occupations='smearing'
/
&electrons
  conv_thr=1.d-8
/
&ions
  ion_dynamics='bfgs'
/        
&cell
  cell_dynamics='bfgs'
/
K_POINTS (automatic)
  8 8 8 0 0 0
ATOMIC_SPECIES
  F 0.0 F.GGA-PBE-paw.UPF
  Na 0.0 Na.GGA-PBE-paw.UPF
ATOMIC_POSITIONS (crystal)
  F 0.0 0.0 0.0
  Na 0.25 0.25 0.25
