&control
  calculation='scf'
  prefix='Si-scf'
  pseudo_dir='./'
/
&system
  ibrav=0
  nat=2
  ntyp=1
  ecutwfc=40
  ecutrho=200
  occupations='fixed'
  nbnd=16
/
&electrons
  conv_thr=1.d-8
/
ATOMIC_SPECIES
  Si 0.0 Si.GGA-PBE-paw.UPF
ATOMIC_POSITIONS angstrom
Si       2.7343640000     2.7343640000     2.7343640000
Si       4.1015460000     4.1015460000     4.1015460000
CELL_PARAMETERS angstrom
    0.0000000000     2.7343640000     2.7343640000
    2.7343640000     0.0000000000     2.7343640000
    2.7343640000     2.7343640000     0.0000000000
K_POINTS (automatic)
  12 12 12 0 0 0

