&control
  calculation='scf'
  prefix='NaBr.ZB.scf'
  pseudo_dir='./'
/
&system
  ibrav=0
  nat=2
  ntyp=2
  ecutwfc=40
  ecutrho=200
  occupations='fixed'
  nbnd=32
/
&electrons
  conv_thr=1.d-8
/
K_POINTS (automatic)
  8 8 8 0 0 0
ATOMIC_SPECIES
  Br 0.0 Br.GGA-PBE-paw.UPF
  Na 0.0 Na.GGA-PBE-paw.UPF
ATOMIC_POSITIONS (crystal)
  Br 0.0 0.0 0.0
  Na 0.25 0.25 0.25
