&control
  calculation='scf'
  prefix='ZnS-scf'
  pseudo_dir='./'
/
&system
  ibrav=0
  nat=2
  ntyp=2
  ecutwfc=40
  ecutrho=200
  occupations='fixed'
  nbnd=16
/
&electrons
  conv_thr=1.d-8
/
ATOMIC_SPECIES
  Zn 0.0 Zn.GGA-PBE-paw.UPF
  S 0.0 S.GGA-PBE-paw.UPF
ATOMIC_POSITIONS (crystal)
Zn 0.0 0.0 0.0
S 0.25 0.25 0.25
K_POINTS (automatic)
  12 12 12 0 0 0

