&control
  calculation='vc-relax'
  prefix='ZnS-relax'
  pseudo_dir='./'
/
&system
  ibrav=2
  celldm(1)=10.32
  nat=2
  ntyp=2
  ecutwfc=40
  ecutrho=200
  smearing='fermi-dirac'
  degauss=0.002
  occupations='smearing'
/
&electrons
  conv_thr=1.d-8
/
&ions
  ion_dynamics='bfgs'
/
&cell
  cell_dynamics='bfgs'
/
ATOMIC_SPECIES
  Zn 0.0 Zn.GGA-PBE-paw.UPF
  S 0.0 S.GGA-PBE-paw.UPF
ATOMIC_POSITIONS (crystal)
Zn 0.0 0.0 0.0
S 0.25 0.25 0.25
K_POINTS (automatic)
  12 12 12 0 0 0

