&control
  calculation='scf'
  prefix='ZnSe.ZB.scf'
  pseudo_dir='./'
/
&system
  ibrav=2
  celldm(1)=10.6429
  nat=2
  ntyp=2
  ecutwfc=40
  ecutrho=200
  occupations='fixed'
  nbnd=24
/
&electrons
  conv_thr=1.d-10
/
ATOMIC_SPECIES
  Zn 0.0 Zn.GGA-PBE-paw.UPF
  Se 0.0 Se.GGA-PBE-paw.UPF
ATOMIC_POSITIONS (alat)
Zn 0.25 0.25 0.25
Se 0.25 0.25 0.25
K_POINTS (automatic)
  13 13 13 0 0 0
