&control
  calculation='scf'
  prefix='ScSbPt.HH.scf'
  pseudo_dir='./'
/
&system
  ibrav=0
  nat=3
  ntyp=3
  ecutwfc=40
  ecutrho=200
  occupations='fixed'
  nbnd=52
/
&electrons
  conv_thr=1.d-8
/
ATOMIC_SPECIES
  Sc 0.0 Sc.GGA-PBE-paw.UPF
  Sb 0.0 Sb.GGA-PBE-paw.UPF
  Pt 0.0 Pt.GGA-PBE-paw.UPF
K_POINTS (automatic)
  12 12 12 0 0 0
ATOMIC_POSITIONS (crystal)
Sc 0.5 0.5 0.5
Sb 0.25 0.25 0.25
Pt 0.75 0.75 0.75
