&control
  calculation='scf'
  prefix='ZrO-scf'
  pseudo_dir='./'
/
&system
  ibrav=0
  nat=3
  ntyp=2
  ecutwfc=40
  ecutrho=200
  occupations='fixed'
  nbnd=24
/
&electrons
  conv_thr=1.d-8
/
ATOMIC_SPECIES
  Zr 0.0 Zr.GGA-PBE-paw.UPF
  O 0.0 O.GGA-PBE-paw.UPF
K_POINTS (automatic)
  10 10 10 0 0 0
ATOMIC_POSITIONS (crystal)
Zr 0.0 0.0 0.0
O 0.25 0.25 0.25
O 0.75 0.75 0.75
