&control
  calculation='scf'
  prefix='Mg.BCC.scf'
  pseudo_dir='./'
/
&system
  ibrav=0
  nat=2
  ntyp=1
  ecutwfc=40
  ecutrho=200
  smearing='fermi-dirac'
  degauss=0.015
  occupations='smearing'
/
&electrons
  conv_thr=1.d-8
/
ATOMIC_SPECIES
  Mg 0.0 Mg.GGA-PBE-paw.UPF
K_POINTS (automatic)
  10 10 10 0 0 0
ATOMIC_POSITIONS (crystal)
  Mg 0.0000 0.0000 0.0000
  Mg 0.5000 0.5000 0.5000
