&control
  calculation='scf'
  prefix='MgO.RS.scf'
  pseudo_dir='./'
/
&system
  ibrav=0
  nat=2
  ntyp=2
  ecutwfc=40
  ecutrho=200
  occupations='fixed'
  nbnd=24
/
&electrons
  conv_thr=1.d-8
/
K_POINTS (automatic)
 8 8 8 0 0 0
ATOMIC_SPECIES
  O 0.0 O.GGA-PBE-paw.UPF
  Mg 0.0 Mg.GGA-PBE-paw.UPF
ATOMIC_POSITIONS (crystal)
  O 0.0 0.0 0.0
  Mg 0.5 0.5 0.5
