&control
  calculation='scf'
  prefix='MgS.ZB.scf'
  pseudo_dir='./'
/
&system
  ibrav=0
  nat=2
  ntyp=2
  ecutwfc=40
  ecutrho=200
  occupations='fixed'
  nbnd=24
/
&electrons
  conv_thr=1.d-8
/
K_POINTS (automatic)
  12 12 12 0 0 0
ATOMIC_SPECIES
  S 0.0 S.GGA-PBE-paw.UPF
  Mg 0.0 Mg.GGA-PBE-paw.UPF
ATOMIC_POSITIONS (crystal)
  S 0.0 0.0 0.0
  Mg 0.25 0.25 0.25
