&control
  calculation='scf'
  prefix='CsAu.CsCl.scf'
  pseudo_dir='./'
/
&system
  ibrav=1
  celldm(1)=7.83
  nat=2
  ntyp=2
  ecutwfc=40
  ecutrho=200
  smearing='fermi-dirac'
  degauss=0.002
  occupations='smearing'
/
&electrons
  conv_thr=1.d-8
/
K_POINTS (automatic)
  10 10 10 1 1 1
ATOMIC_SPECIES
  Cs 0.0 Cs.GGA-PBE-paw.UPF
  Au 0.0 Au.GGA-PBE-paw.UPF
ATOMIC_POSITIONS (crystal)
  Cs 0.0 0.0 0.0
  Au 0.5 0.5 0.5
