&control
  calculation='vc-relax'
  prefix='relax'
  pseudo_dir='./'
/
&system
  ibrav=2
  celldm=11.71
  nat=3
  ntyp=3
  ecutwfc=40
  ecutrho=200
  smearing='fermi-dirac'
  degauss=0.002
  occupations='smearing'
/
&electrons
  conv_thr=1.d-8
/
&ions
  ion_dynamics='bfgs'
/        
&cell
  cell_dynamics='bfgs'
/
ATOMIC_SPECIES
  Sb 0.0 Sb.GGA-PBE-paw.UPF
  Ta 0.0 Ta.GGA-PBE-paw.UPF
  Ru 0.0 Ru.GGA-PBE-paw.UPF
K_POINTS (automatic)
  8 8 8 0 0 0
ATOMIC_POSITIONS (crystal)
Sb 0.5 0.5 0.5
Ta 0.25 0.25 0.25
Ru 0.75 0.75 0.75
