&control
  calculation='scf'
  prefix='BeO.RS.scf'
  pseudo_dir='./'
/
&system
  ibrav=0
  nat=2
  ntyp=2
  ecutwfc=40
  ecutrho=200
  occupations='fixed'
  nbnd=24
/
&electrons
  conv_thr=1.d-8
/
K_POINTS (automatic)
  12 12 12 0 0 0
ATOMIC_SPECIES
  O 0.0 O.GGA-PBE-paw.UPF
  Be 0.0 Be.GGA-PBE-paw.UPF
ATOMIC_POSITIONS crystal
O        0.000000000  -0.000000000  -0.000000000
Be       0.500000000   0.500000000   0.500000000
CELL_PARAMETERS bohr
-3.4252212783 -0.0 3.4252212783
0.0 3.4252212783 3.4252212783
-3.4252212783 3.4252212783 -0.0
