&control
  calculation='vc-relax'
  prefix='relax'
  pseudo_dir='./'
/
&system
  ibrav=0
  nat=14
  ntyp=2
  ecutwfc=40
  ecutrho=200
  smearing='fermi-dirac'
  degauss=0.002
  occupations='smearing'
/
&electrons
  conv_thr=1.d-8
/
&ions
  ion_dynamics='bfgs'
/        
&cell
  cell_dynamics='none'
/
ATOMIC_SPECIES
  Ta 0.0 Ta.GGA-PBE-paw.UPF
  O 0.0 O.GGA-PBE-paw.UPF
K_POINTS (automatic)
  16 12 8 0 0 0
ATOMIC_POSITIONS crystal
Ta 0.000 0.000 0.000
Ta 0.000 0.000 0.500
Ta 0.500 0.500 0.500
Ta 0.500 0.500 0.000
O 0.000 0.000 0.250
O 0.000 0.000 0.750
O 0.0013 0.6797 0.000
O 0.0013 0.3203 0.500
O 0.500 0.500 0.750
O 0.500 0.000 0.000
O 0.500 0.000 0.500
O 0.500 0.500 0.250
O 0.9987 0.3203 0.000
O 0.9987 0.6797 0.500
CELL_PARAMETERS angstrom
3.6767233 0.0000000 0.0000000
0.0000000 6.2167738 0.0000000
0.0000000 0.0000000 7.7937220
