&control
  calculation='vc-relax'
  prefix='relax'
  pseudo_dir='./'
/
&system
  ibrav=0
  nat=7
  ntyp=2
  ecutwfc=40
  ecutrho=200
  smearing='fermi-dirac'
  degauss=0.002
  occupations='smearing'
/
&electrons
  conv_thr=1.d-8
/
&ions
  ion_dynamics='bfgs'
/        
&cell
  cell_dynamics='none'
/
ATOMIC_SPECIES
  V 0.0 V.GGA-PBE-paw.UPF
  O 0.0 O.GGA-PBE-paw.UPF
K_POINTS (automatic)
  16 16 8 0 0 0
ATOMIC_POSITIONS crystal
Ta 0.000000 0.000000 0.500000
Ta 0.500000 0.000000 0.000000
O 0.000000 0.000000 0.179655
O 0.000000 0.000000 0.820345
O 0.000000 0.500000 0.500000
O 0.500000 0.000000 0.500000
O 0.500000 0.500000 0.000000
CELL_PARAMETERS angstrom
3.700412 0.000000 0.000000
0.000000 3.892094 0.000000
0.000000 0.000000 6.526749
