&control
  calculation='scf'
  prefix='Si.diamond.scf'
  pseudo_dir='./'
/
&system
  ibrav=0
  nat=2
  ntyp=1
  ecutwfc=40
  ecutrho=200
  occupations='fixed'
  nbnd=16
/
&electrons
  conv_thr=1.d-8
/
K_POINTS (automatic)
  12 12 12 0 0 0
ATOMIC_SPECIES
  Si 0.0 Si.GGA-PBE-paw.UPF
ATOMIC_POSITIONS crystal 
Si       0.000000000  -0.000000000   0.000000000
Si       0.250000000   0.250000000   0.250000000
CELL_PARAMETERS bohr
-5.130605 0.0 5.130605 
0.0 5.130605 5.130605 
-5.130605 5.130605 0.0 
