&control
  calculation='relax'
  prefix='LaCoMnO.trig.relax'
  pseudo_dir='./'
/
&system
  ibrav=0
  nat=10
  ntyp=4
  ecutwfc=40
  ecutrho=200
  smearing='fermi-dirac'
  degauss=0.002
  occupations='smearing'
  nspin=2
  starting_magnetization(1)=0.000
  starting_magnetization(2)=2.735
  starting_magnetization(3)=2.421
  starting_magnetization(4)=0.000
/
&electrons
  conv_thr=1.d-8
/
&ions
  ion_dynamics='bfgs'
/
ATOMIC_SPECIES
La 0.0 La.GGA-PBE-paw.UPF
Mn 0.0 Mn.GGA-PBE-paw.UPF
Co 0.0 Co.GGA-PBE-paw.UPF
O 0.0 O.GGA-PBE-paw.UPF
K_POINTS (automatic)
  4 4 4 0 0 0
ATOMIC_POSITIONS crystal
La 0.250190 0.250190 0.250190
La 0.749810 0.749810 0.749810
Mn 0.500000 0.500000 0.500000
Co 0.000000 0.000000 0.000000
O 0.806040 0.682270 0.257830
O 0.257830 0.806040 0.682270
O 0.682270 0.257830 0.806040
O 0.193960 0.317730 0.742170
O 0.742170 0.193960 0.317730
O 0.317730 0.742170 0.193960
CELL_PARAMETERS angstrom
4.787016 0.000000 2.683723
1.572136 4.521494 2.683723
0.000000 0.000000 5.487977
