&control
  calculation='vc-relax'
  prefix='ZrO-relax'
  pseudo_dir='./'
/
&system
  ibrav=2
  celldm(1)=9.732
  nat=3
  ntyp=2
  ecutwfc=40
  ecutrho=200
  smearing='fermi-dirac'
  degauss=0.002
  occupations='smearing'
/
&electrons
  conv_thr=1.d-8
/
&ions
  ion_dynamics='bfgs'
/
&cell
  cell_dynamics='bfgs'
/
ATOMIC_SPECIES
  Zr 0.0 Zr.GGA-PBE-paw.UPF
  O 0.0 O.GGA-PBE-paw.UPF
K_POINTS (automatic)
  10 10 10 0 0 0
ATOMIC_POSITIONS (crystal)
Zr 0.0 0.0 0.0
O 0.25 0.25 0.25
O 0.75 0.75 0.75
