&control
  calculation='scf'
  prefix='AgBr.RS.scf'
  pseudo_dir='./'
/
&system
  ibrav=0
  nat=2
  ntyp=2
  ecutwfc=40
  ecutrho=200
  occupations='fixed'
  nbnd=36
/
&electrons
  conv_thr=1.d-8
/
K_POINTS (automatic)
  10 10 10 1 1 1
ATOMIC_SPECIES
  Br 0.0 Br.GGA-PBE-paw.UPF
  Ag 0.0 Ag.GGA-PBE-paw.UPF
ATOMIC_POSITIONS (crystal)
  Br 0.0 0.0 0.0
  Ag 0.5 0.5 0.5
