&control
  calculation='scf'
  prefix='VO-scf'
  pseudo_dir='./'
/
&system
  ibrav=2
  celldm(1)=7.8215764
  nat=2
  ntyp=2
  ecutwfc=40
  ecutrho=200
  smearing='fermi-dirac'
  degauss=0.002
  occupations='smearing'
  nspin=2
  starting_magnetization(1)=0.00
  starting_magnetization(2)=3.00
/
&electrons
  conv_thr=1.d-8
/
ATOMIC_SPECIES
  O 0.0 o_pbe_v1.2.uspp.F.UPF
  Cr 0.0 cr_pbe_v1.5.uspp.F.UPF
ATOMIC_POSITIONS (alat)
  O 0.0 0.0 0.0
  Cr 0.5 0.5 0.5
K_POINTS (automatic)
  12 12 12 0 0 0
