&control
  calculation='vc-relax'
  prefix='relax'
  pseudo_dir='./'
  nstep=1
/
&system
  ibrav=0
  nat=14
  ntyp=2
  ecutwfc=40
  ecutrho=200
  smearing='fermi-dirac'
  degauss=0.002
  occupations='smearing'
/
&electrons
  conv_thr=1.d-8
/
&ions
  ion_dynamics='bfgs'
/        
&cell
  cell_dynamics='none'
/
ATOMIC_SPECIES
  V 0.0 V.GGA-PBE-paw.UPF
  O 0.0 O.GGA-PBE-paw.UPF
K_POINTS (automatic)
  8 2 6 0 0 0
ATOMIC_POSITIONS crystal
V 0.148400 0.000000 0.108300
V 0.851600 0.000000 0.108300
V 0.648400 0.500000 0.891700
V 0.351600 0.500000 0.891700
O 0.314500 0.000000 0.991000
O 0.685500 0.000000 0.991000
O 0.814500 0.500000 0.009000
O 0.185500 0.500000 0.009000
O 0.000000 0.000000 0.017000
O 0.500000 0.500000 0.983000
O 0.148100 0.000000 0.460400
O 0.851900 0.000000 0.460400
O 0.648100 0.500000 0.539600
O 0.351900 0.500000 0.539600
CELL_PARAMETERS angstrom
11.498000 0.000000 0.000000
0.000000 3.545000 0.000000
0.000000 0.000000 4.345000
