&control
  calculation='vc-relax'
  prefix='relax'
  pseudo_dir='./'
/
&system
  ibrav=0
  nat=6
  ntyp=2
  ecutwfc=40
  ecutrho=200
  smearing='fermi-dirac'
  degauss=0.002
  occupations='smearing'
/
&electrons
  conv_thr=1.d-8
/
&ions
  ion_dynamics='bfgs'
/        
&cell
  cell_dynamics='bfgs'
/
K_POINTS (automatic)
  8 6 6 0 0 0
ATOMIC_SPECIES
  O 0.0 O.GGA-PBE-paw.UPF
  Ti 0.0 Ti.GGA-PBE-paw.UPF
CELL_PARAMETERS (angstrom)
2.969 0.000 0.000
0.000 4.653 0.000
0.000 0.000 4.653
ATOMIC_POSITIONS (crystal)
O 0.0000 0.3046 0.3046
O 0.0000 0.6954 0.6954
O 0.5000 0.1954 0.8046
O 0.5000 0.8046 0.1954
Ti 0.000 0.0000 0.0000
Ti 0.500 0.5000 0.5000
