&control
  calculation='scf'
  prefix='ZrCoBi.HH.scf'
  pseudo_dir='./'
/
&system
  ibrav=0
  nat=3
  ntyp=3
  ecutwfc=40
  ecutrho=200
  occupations='fixed'
  nbnd=36
/
&electrons
  conv_thr=1.d-8
/
ATOMIC_SPECIES
  Zr 0.0 Zr.GGA-PBE-paw.UPF
  Co 0.0 Co.GGA-PBE-paw.UPF
  Bi 0.0 Bi.GGA-PBE-paw.UPF
K_POINTS (automatic)
  8 8 8 1 1 1
ATOMIC_POSITIONS (crystal)
Zr 0.5 0.5 0.5
Co 0.25 0.25 0.25
Bi 0.75 0.75 0.75
