&control
  calculation='vc-relax'
  prefix='relax'
  pseudo_dir='./'
/
&system
  ibrav=0
  nat=2
  ntyp=2
  ecutwfc=40
  ecutrho=200
  smearing='fermi-dirac'
  degauss=0.002
  occupations='smearing'
/
&electrons
  conv_thr=1.d-8
/
&ions
  ion_dynamics='bfgs'
/        
&cell
  cell_dynamics='bfgs'
/
ATOMIC_SPECIES
  O 15.999 O.GGA-PBE-paw.UPF
  Si 28.0855 Si.GGA-PBE-paw.UPF
ATOMIC_POSITIONS (alat)
  O 0.0 0.0 0.0
  Si 0.0 0.0 0.0
K_POINTS (automatic)
  8 8 8 0 0 0
CELL_PARAMETERS angstrom
  2.308347 2.308347 0.0000000
  2.308347 0.000000 -2.308347
  0.000000 2.308347 -2.308347

