&control
  calculation='scf'
  prefix='TiSnPd.HH.scf'
  pseudo_dir='./'
/
&system
  ibrav=0
  nat=3
  ntyp=3
  ecutwfc=40
  ecutrho=200
  occupations='fixed'
  nbnd=42
/
&electrons
  conv_thr=1.d-8
/
ATOMIC_SPECIES
  Ti 0.0 Ti.GGA-PBE-paw.UPF
  Sn 0.0 Sn.GGA-PBE-paw.UPF
  Pd 0.0 Pd.GGA-PBE-paw.UPF
K_POINTS (automatic)
  8 8 8 1 1 1
ATOMIC_POSITIONS (crystal)
Ti 0.5 0.5 0.5
Sn 0.25 0.25 0.25
Pd 0.75 0.75 0.75
