&control
  calculation='scf'
  prefix='KH.RS.scf'
  pseudo_dir='./'
/
&system
  ibrav=0
  nat=2
  ntyp=2
  ecutwfc=40
  ecutrho=200
  occupations='fixed'
  nbnd=24
/
&electrons
  conv_thr=1.d-8
/
&ions
  ion_dynamics='bfgs'
/        
&cell
  cell_dynamics='bfgs'
/
K_POINTS (automatic)
  8 8 8 1 1 1
ATOMIC_SPECIES
  H 0.0 H.GGA-PBE-paw.UPF
  K 0.0 K.GGA-PBE-paw.UPF
ATOMIC_POSITIONS (crystal)
  H 0.0 0.0 0.0
  K 0.5 0.5 0.5
