&control
  calculation='scf'
  prefix='LiH.RS.scf'
  pseudo_dir='./'
/
&system
  ibrav=0
  nat=2
  ntyp=2
  ecutwfc=40
  ecutrho=200
  occupations='fixed'
  nbnd=12
/
&electrons
  conv_thr=1.d-8
/
&ions
  ion_dynamics='bfgs'
/        
&cell
  cell_dynamics='bfgs'
/
K_POINTS (automatic)
  10 10 10 0 0 0
ATOMIC_SPECIES
  H 0.0 H.GGA-PBE-paw.UPF
  Li 0.0 Li.GGA-PBE-paw.UPF
ATOMIC_POSITIONS (crystal)
  H 0.0 0.0 0.0
  Li 0.5 0.5 0.5
