&control
  calculation='scf'
  prefix='LaBr3.hex.scf'
  pseudo_dir='./'
/
&system
  ibrav=0
  nat=8
  ntyp=2
  ecutwfc=40
  ecutrho=200
  occupations='fixed'
  nbnd=108
/
&electrons
  conv_thr=1.d-8
/
&ions
  ion_dynamics='bfgs'
/        
&cell
  cell_dynamics='bfgs'
/
ATOMIC_SPECIES
  La 0.0 La.GGA-PBE-paw.UPF
  Br 0.0 Br.GGA-PBE-paw.UPF
K_POINTS (automatic)
  6 6 10 0 0 0
