&control
  calculation='scf'
  prefix='LiBr.RS.scf'
  pseudo_dir='./'
/
&system
  ibrav=2
  celldm(1)=10.4
  nat=2
  ntyp=2
  ecutwfc=40
  ecutrho=200
  occupations='fixed'
  nbnd=32
/
&electrons
  conv_thr=1.d-8
/
K_POINTS (automatic)
  8 8 8 1 1 1
ATOMIC_SPECIES
  Br 0.0 Br.GGA-PBE-paw.UPF
  Li 0.0 Li.GGA-PBE-paw.UPF
ATOMIC_POSITIONS (crystal)
  Br 0.0 0.0 0.0
  Li 0.5 0.5 0.5
