&control
  calculation='scf'
  prefix='RbH.RS.scf'
  pseudo_dir='./'
/
&system
  ibrav=0
  nat=2
  ntyp=2
  ecutwfc=40
  ecutrho=200
  occupations='fixed'
  nbnd=24
/
&electrons
  conv_thr=1.d-8
/
K_POINTS (automatic)
  12 12 12 0 0 0
ATOMIC_SPECIES
  Rb 0.0 Rb.GGA-PBE-paw.UPF
  H 0.0 H.GGA-PBE-paw.UPF
ATOMIC_POSITIONS (crystal)
  Rb 0.0 0.0 0.0
  H 0.5 0.5 0.5
